(declare-const |k'| Int)
(declare-const j Int)
(declare-const k Int)
(declare-const term_to_project_onto0_integralized Int)
(declare-const term_to_project_onto_integralized Int)
(declare-const |j'| Int)
(assert (and (is_int (/ j 2)) (<= (- j) 0) (= (+ (- k) |k'| 4) 0)
               (= (+ |j'| (- j) 4) 0)
               (= (+ term_to_project_onto0_integralized (- (+ |j'| (- j)))) 0)
               (= (+ term_to_project_onto_integralized (- (+ |k'| (- k)))) 0)))
(check-sat)